NAME: cuum670.tsp
TYPE: TSP
COMMENT: User-generated TSP file
DIMENSION: 670
EDGE_WEIGHT_TYPE: EUC_2D
NODE_COORD_SECTION
1 430.0 48.0
2 495.0 634.0
3 446.0 63.0
4 142.0 307.0
5 463.0 654.0
6 625.0 375.0
7 85.0 16.0
8 484.0 520.0
9 544.0 494.0
10 152.0 183.0
11 130.0 142.0
12 552.0 441.0
13 430.0 492.0
14 159.0 538.0
15 428.0 437.0
16 657.0 227.0
17 233.0 440.0
18 542.0 63.0
19 16.0 115.0
20 361.0 499.0
21 233.0 145.0
22 267.0 463.0
23 184.0 240.0
24 297.0 108.0
25 554.0 482.0
26 482.0 670.0
27 23.0 486.0
28 371.0 323.0
29 449.0 53.0
30 281.0 547.0
31 151.0 276.0
32 470.0 81.0
33 598.0 404.0
34 550.0 345.0
35 148.0 32.0
36 141.0 562.0
37 218.0 542.0
38 220.0 613.0
39 385.0 617.0
40 548.0 637.0
41 616.0 87.0
42 613.0 290.0
43 669.0 442.0
44 488.0 505.0
45 664.0 518.0
46 308.0 262.0
47 309.0 664.0
48 170.0 410.0
49 533.0 316.0
50 401.0 323.0
51 348.0 522.0
52 375.0 394.0
53 229.0 218.0
54 70.0 652.0
55 427.0 609.0
56 280.0 128.0
57 76.0 162.0
58 57.0 167.0
59 168.0 547.0
60 535.0 637.0
61 488.0 264.0
62 6.0 556.0
63 397.0 240.0
64 44.0 465.0
65 600.0 182.0
66 33.0 196.0
67 72.0 456.0
68 96.0 378.0
69 188.0 278.0
70 257.0 619.0
71 110.0 504.0
72 141.0 320.0
73 22.0 58.0
74 419.0 54.0
75 489.0 4.0
76 109.0 263.0
77 143.0 499.0
78 271.0 152.0
79 345.0 608.0
80 66.0 566.0
81 499.0 46.0
82 257.0 417.0
83 444.0 284.0
84 302.0 371.0
85 576.0 168.0
86 54.0 396.0
87 30.0 585.0
88 463.0 590.0
89 492.0 211.0
90 630.0 183.0
91 591.0 305.0
92 289.0 2.0
93 566.0 200.0
94 213.0 9.0
95 638.0 12.0
96 34.0 135.0
97 485.0 485.0
98 364.0 627.0
99 532.0 395.0
100 392.0 463.0
101 192.0 579.0
102 228.0 79.0
103 270.0 141.0
104 485.0 151.0
105 582.0 519.0
106 259.0 178.0
107 345.0 498.0
108 395.0 650.0
109 368.0 428.0
110 539.0 139.0
111 442.0 296.0
112 661.0 39.0
113 470.0 37.0
114 630.0 10.0
115 349.0 144.0
116 438.0 110.0
117 83.0 618.0
118 477.0 579.0
119 498.0 480.0
120 120.0 670.0
121 81.0 164.0
122 176.0 270.0
123 451.0 615.0
124 275.0 338.0
125 270.0 470.0
126 61.0 32.0
127 370.0 40.0
128 330.0 216.0
129 406.0 604.0
130 256.0 250.0
131 512.0 641.0
132 551.0 575.0
133 193.0 43.0
134 377.0 447.0
135 217.0 135.0
136 285.0 438.0
137 473.0 147.0
138 448.0 149.0
139 86.0 112.0
140 281.0 86.0
141 71.0 246.0
142 488.0 665.0
143 212.0 345.0
144 590.0 374.0
145 61.0 605.0
146 119.0 574.0
147 65.0 324.0
148 31.0 333.0
149 527.0 203.0
150 116.0 590.0
151 12.0 555.0
152 200.0 175.0
153 144.0 555.0
154 527.0 25.0
155 516.0 623.0
156 391.0 229.0
157 463.0 197.0
158 272.0 49.0
159 489.0 610.0
160 503.0 586.0
161 105.0 411.0
162 82.0 339.0
163 247.0 359.0
164 531.0 634.0
165 665.0 334.0
166 288.0 589.0
167 574.0 581.0
168 618.0 284.0
169 478.0 352.0
170 12.0 108.0
171 451.0 209.0
172 613.0 618.0
173 29.0 603.0
174 201.0 38.0
175 395.0 13.0
176 291.0 50.0
177 322.0 244.0
178 367.0 439.0
179 240.0 483.0
180 667.0 40.0
181 175.0 81.0
182 335.0 659.0
183 255.0 145.0
184 429.0 364.0
185 453.0 525.0
186 325.0 221.0
187 2.0 418.0
188 270.0 228.0
189 524.0 107.0
190 530.0 119.0
191 48.0 309.0
192 336.0 429.0
193 43.0 403.0
194 389.0 191.0
195 579.0 362.0
196 366.0 395.0
197 658.0 117.0
198 304.0 195.0
199 113.0 235.0
200 544.0 372.0
201 149.0 47.0
202 28.0 620.0
203 51.0 397.0
204 623.0 610.0
205 649.0 256.0
206 266.0 655.0
207 185.0 223.0
208 629.0 162.0
209 617.0 604.0
210 420.0 448.0
211 114.0 339.0
212 585.0 590.0
213 322.0 76.0
214 93.0 1.0
215 558.0 481.0
216 353.0 299.0
217 427.0 191.0
218 449.0 524.0
219 141.0 611.0
220 32.0 132.0
221 66.0 485.0
222 553.0 535.0
223 336.0 58.0
224 169.0 363.0
225 566.0 420.0
226 618.0 157.0
227 82.0 144.0
228 67.0 187.0
229 401.0 262.0
230 201.0 615.0
231 474.0 373.0
232 122.0 599.0
233 18.0 406.0
234 143.0 423.0
235 519.0 287.0
236 438.0 262.0
237 432.0 462.0
238 620.0 600.0
239 186.0 654.0
240 353.0 636.0
241 416.0 568.0
242 153.0 519.0
243 388.0 657.0
244 621.0 54.0
245 469.0 236.0
246 296.0 556.0
247 254.0 169.0
248 405.0 487.0
249 577.0 458.0
250 198.0 370.0
251 258.0 340.0
252 51.0 128.0
253 186.0 559.0
254 457.0 511.0
255 85.0 53.0
256 42.0 237.0
257 114.0 180.0
258 349.0 312.0
259 225.0 530.0
260 122.0 242.0
261 405.0 196.0
262 156.0 201.0
263 244.0 472.0
264 565.0 316.0
265 72.0 310.0
266 202.0 100.0
267 647.0 424.0
268 573.0 356.0
269 470.0 303.0
270 518.0 188.0
271 243.0 286.0
272 150.0 174.0
273 317.0 597.0
274 84.0 349.0
275 467.0 354.0
276 520.0 532.0
277 318.0 658.0
278 360.0 359.0
279 130.0 246.0
280 493.0 311.0
281 167.0 611.0
282 523.0 414.0
283 5.0 361.0
284 495.0 30.0
285 116.0 553.0
286 568.0 477.0
287 464.0 331.0
288 353.0 87.0
289 528.0 398.0
290 412.0 399.0
291 568.0 461.0
292 384.0 233.0
293 477.0 123.0
294 216.0 52.0
295 231.0 124.0
296 668.0 452.0
297 14.0 550.0
298 607.0 500.0
299 87.0 345.0
300 171.0 375.0
301 645.0 103.0
302 664.0 412.0
303 43.0 505.0
304 287.0 406.0
305 357.0 6.0
306 590.0 285.0
307 481.0 167.0
308 502.0 491.0
309 268.0 183.0
310 475.0 300.0
311 555.0 249.0
312 216.0 609.0
313 666.0 327.0
314 566.0 636.0
315 92.0 23.0
316 441.0 335.0
317 652.0 360.0
318 88.0 200.0
319 112.0 262.0
320 166.0 645.0
321 244.0 210.0
322 213.0 513.0
323 437.0 136.0
324 528.0 664.0
325 462.0 646.0
326 94.0 32.0
327 385.0 353.0
328 421.0 482.0
329 330.0 322.0
330 592.0 189.0
331 634.0 647.0
332 637.0 587.0
333 337.0 335.0
334 182.0 667.0
335 461.0 70.0
336 326.0 670.0
337 551.0 515.0
338 125.0 200.0
339 592.0 60.0
340 668.0 535.0
341 424.0 485.0
342 62.0 513.0
343 267.0 200.0
344 138.0 557.0
345 581.0 495.0
346 65.0 663.0
347 166.0 91.0
348 565.0 458.0
349 484.0 235.0
350 240.0 194.0
351 140.0 162.0
352 308.0 14.0
353 305.0 670.0
354 639.0 282.0
355 602.0 319.0
356 517.0 83.0
357 514.0 38.0
358 91.0 643.0
359 291.0 5.0
360 465.0 478.0
361 237.0 392.0
362 210.0 187.0
363 460.0 75.0
364 323.0 30.0
365 83.0 43.0
366 226.0 595.0
367 648.0 560.0
368 142.0 469.0
369 91.0 78.0
370 401.0 73.0
371 652.0 227.0
372 296.0 35.0
373 54.0 601.0
374 506.0 661.0
375 39.0 135.0
376 18.0 148.0
377 19.0 201.0
378 140.0 430.0
379 76.0 284.0
380 13.0 646.0
381 394.0 138.0
382 368.0 547.0
383 548.0 573.0
384 261.0 507.0
385 489.0 420.0
386 313.0 185.0
387 301.0 48.0
388 104.0 305.0
389 450.0 234.0
390 164.0 559.0
391 403.0 300.0
392 66.0 364.0
393 200.0 502.0
394 666.0 451.0
395 470.0 41.0
396 296.0 3.0
397 529.0 222.0
398 148.0 470.0
399 62.0 297.0
400 391.0 475.0
401 146.0 8.0
402 95.0 89.0
403 302.0 23.0
404 109.0 176.0
405 364.0 521.0
406 613.0 521.0
407 180.0 208.0
408 575.0 438.0
409 15.0 247.0
410 340.0 396.0
411 335.0 66.0
412 89.0 59.0
413 125.0 137.0
414 489.0 294.0
415 513.0 268.0
416 338.0 19.0
417 46.0 12.0
418 226.0 525.0
419 372.0 338.0
420 597.0 269.0
421 84.0 101.0
422 97.0 570.0
423 553.0 385.0
424 427.0 31.0
425 132.0 336.0
426 372.0 584.0
427 567.0 291.0
428 45.0 354.0
429 397.0 108.0
430 469.0 272.0
431 201.0 497.0
432 50.0 423.0
433 332.0 383.0
434 115.0 322.0
435 270.0 431.0
436 353.0 333.0
437 433.0 115.0
438 629.0 109.0
439 1.0 635.0
440 89.0 230.0
441 172.0 502.0
442 333.0 425.0
443 227.0 487.0
444 115.0 9.0
445 439.0 407.0
446 295.0 93.0
447 311.0 183.0
448 596.0 650.0
449 416.0 533.0
450 434.0 573.0
451 473.0 43.0
452 143.0 563.0
453 221.0 157.0
454 607.0 464.0
455 72.0 235.0
456 648.0 78.0
457 309.0 631.0
458 15.0 332.0
459 265.0 613.0
460 542.0 170.0
461 610.0 611.0
462 661.0 636.0
463 42.0 159.0
464 464.0 445.0
465 414.0 453.0
466 285.0 377.0
467 607.0 316.0
468 527.0 631.0
469 281.0 281.0
470 402.0 137.0
471 196.0 193.0
472 117.0 32.0
473 61.0 26.0
474 516.0 536.0
475 460.0 271.0
476 297.0 563.0
477 439.0 650.0
478 316.0 59.0
479 550.0 358.0
480 69.0 146.0
481 85.0 101.0
482 379.0 623.0
483 48.0 239.0
484 540.0 286.0
485 475.0 223.0
486 336.0 127.0
487 466.0 587.0
488 530.0 474.0
489 346.0 279.0
490 535.0 134.0
491 600.0 251.0
492 349.0 398.0
493 447.0 298.0
494 386.0 177.0
495 12.0 390.0
496 669.0 369.0
497 667.0 615.0
498 26.0 647.0
499 78.0 654.0
500 132.0 477.0
501 10.0 251.0
502 271.0 142.0
503 570.0 111.0
504 230.0 600.0
505 436.0 227.0
506 103.0 564.0
507 580.0 85.0
508 17.0 107.0
509 453.0 562.0
510 202.0 55.0
511 656.0 189.0
512 226.0 124.0
513 37.0 312.0
514 173.0 474.0
515 365.0 652.0
516 156.0 53.0
517 529.0 615.0
518 306.0 61.0
519 16.0 491.0
520 188.0 596.0
521 213.0 574.0
522 415.0 339.0
523 138.0 598.0
524 50.0 372.0
525 432.0 504.0
526 45.0 452.0
527 162.0 395.0
528 429.0 635.0
529 408.0 548.0
530 172.0 597.0
531 401.0 339.0
532 667.0 76.0
533 24.0 384.0
534 444.0 526.0
535 454.0 507.0
536 562.0 409.0
537 223.0 491.0
538 409.0 275.0
539 108.0 56.0
540 596.0 270.0
541 54.0 581.0
542 575.0 633.0
543 31.0 542.0
544 194.0 187.0
545 353.0 16.0
546 492.0 496.0
547 236.0 401.0
548 382.0 432.0
549 525.0 587.0
550 185.0 634.0
551 575.0 269.0
552 639.0 213.0
553 308.0 439.0
554 231.0 120.0
555 11.0 633.0
556 225.0 207.0
557 154.0 273.0
558 446.0 482.0
559 624.0 429.0
560 119.0 319.0
561 224.0 414.0
562 155.0 34.0
563 472.0 73.0
564 487.0 589.0
565 385.0 613.0
566 16.0 44.0
567 533.0 414.0
568 368.0 626.0
569 405.0 68.0
570 486.0 666.0
571 407.0 641.0
572 589.0 27.0
573 314.0 53.0
574 204.0 349.0
575 220.0 649.0
576 473.0 336.0
577 231.0 291.0
578 123.0 106.0
579 413.0 248.0
580 604.0 188.0
581 214.0 511.0
582 28.0 146.0
583 372.0 14.0
584 437.0 616.0
585 103.0 548.0
586 69.0 421.0
587 451.0 147.0
588 446.0 359.0
589 655.0 234.0
590 389.0 486.0
591 3.0 406.0
592 573.0 315.0
593 496.0 211.0
594 428.0 74.0
595 545.0 658.0
596 207.0 195.0
597 325.0 148.0
598 611.0 523.0
599 322.0 376.0
600 47.0 134.0
601 228.0 238.0
602 502.0 104.0
603 264.0 564.0
604 256.0 180.0
605 383.0 206.0
606 637.0 163.0
607 234.0 250.0
608 402.0 320.0
609 412.0 466.0
610 589.0 287.0
611 271.0 327.0
612 451.0 658.0
613 387.0 393.0
614 455.0 536.0
615 184.0 39.0
616 147.0 657.0
617 500.0 242.0
618 416.0 602.0
619 569.0 120.0
620 337.0 610.0
621 552.0 339.0
622 40.0 106.0
623 337.0 144.0
624 291.0 570.0
625 610.0 250.0
626 345.0 489.0
627 589.0 260.0
628 387.0 591.0
629 416.0 423.0
630 552.0 331.0
631 37.0 120.0
632 13.0 316.0
633 657.0 669.0
634 291.0 185.0
635 582.0 385.0
636 113.0 277.0
637 29.0 235.0
638 485.0 494.0
639 411.0 421.0
640 642.0 101.0
641 220.0 411.0
642 159.0 570.0
643 594.0 71.0
644 9.0 290.0
645 8.0 5.0
646 7.0 83.0
647 130.0 662.0
648 407.0 58.0
649 321.0 465.0
650 78.0 450.0
651 359.0 293.0
652 218.0 641.0
653 361.0 333.0
654 646.0 510.0
655 185.0 279.0
656 117.0 441.0
657 159.0 348.0
658 140.0 204.0
659 606.0 256.0
660 243.0 45.0
661 369.0 178.0
662 108.0 378.0
663 656.0 194.0
664 457.0 174.0
665 613.0 494.0
666 72.0 476.0
667 135.0 627.0
668 359.0 173.0
669 554.0 235.0
670 178.0 71.0
EOF





